
#######################################################################
#
#                 Cambridge Crystallographic Data Centre
#                                CCDC 
#
#######################################################################
#
# If this CIF has been generated from an entry in the Cambridge 
# Structural Database, then it will include bibliographic, chemical, 
# crystal, experimental, refinement or atomic coordinate data resulting 
# from the CCDC's data processing and validation procedures.
#
#######################################################################

data_CSD_CIF_ZATVIZ
_audit_creation_date 1996-04-18
_audit_creation_method CSD-ConQuest-V1
_database_code_CSD ZATVIZ
_database_code_depnum_ccdc_fiz 'CSD 402014'
_chemical_formula_sum 'C30 H22 O5 V1'
_chemical_formula_moiety
;
C30 H22 O5 V1
;
_journal_coden_Cambridge 643
_journal_volume 210
_journal_year 1995
_journal_page_first 627
_journal_name_full 'Z.Kristallogr. '
loop_
_publ_author_name
"U.Schilde"
"W.Bansse"
"E.Ludwig"
"E.Uhlemann"
_chemical_name_systematic
;
bis(1,3-Diphenyl-1,3-propanedionato)-oxo-vanadium(iv)
;
_cell_volume   4988.341
_exptl_crystal_colour 'dark green'
_diffrn_ambient_temperature ?
_diffrn_special_details
;
The study was carried out at room temperature,in the range 283-303K

;
#These two values have been output from a single CSD field.
_refine_ls_R_factor_gt 0.059
_refine_ls_wR_factor_gt 0.059
_symmetry_cell_setting orthorhombic
_symmetry_space_group_name_H-M 'P b c a'
_symmetry_Int_Tables_number 61
loop_
_symmetry_equiv_pos_site_id
_symmetry_equiv_pos_as_xyz
1 x,y,z
2 1/2-x,-y,1/2+z
3 1/2+x,1/2-y,-z
4 -x,1/2+y,1/2-z
5 -x,-y,-z
6 -1/2+x,y,-1/2-z
7 -1/2-x,-1/2+y,z
8 x,-1/2-y,-1/2+z
_cell_length_a 16.462(2)
_cell_length_b 20.269(4)
_cell_length_c 14.950(2)
_cell_angle_alpha 90
_cell_angle_beta 90
_cell_angle_gamma 90
_cell_formula_units_Z 8
loop_
_atom_type_symbol
_atom_type_radius_bond
C 0.68
H 0.23
O 0.68
V 1.29
loop_
_atom_site_label
_atom_site_type_symbol
_atom_site_fract_x
_atom_site_fract_y
_atom_site_fract_z
V1 V 0.85762(7) 0.37285(6) 0.05332(9)
O1 O 0.8330(3) 0.3391(3) 0.1445(4)
O2 O 0.9642(3) 0.4112(2) 0.0726(3)
O3 O 0.8141(3) 0.4618(2) 0.0565(4)
O4 O 0.7671(3) 0.3598(2) -0.0283(3)
O5 O 0.9164(3) 0.3071(2) -0.0174(3)
C1 C 0.9821(4) 0.4673(4) 0.1034(5)
C2 C 1.0682(4) 0.4773(3) 0.1333(4)
C3 C 1.1203(4) 0.4231(4) 0.1257(6)
C4 C 1.1997(5) 0.4279(4) 0.1569(6)
C5 C 1.2276(5) 0.4856(4) 0.1966(6)
C6 C 1.1769(4) 0.5395(4) 0.2024(5)
C7 C 1.0983(4) 0.5364(4) 0.1713(5)
C8 C 0.9269(4) 0.5205(4) 0.1126(5)
C9 C 0.8448(4) 0.5141(4) 0.0855(5)
C10 C 0.7906(4) 0.5733(3) 0.0897(5)
C11 C 0.8136(5) 0.6353(4) 0.1199(6)
C12 C 0.7573(6) 0.6862(4) 0.1234(6)
C13 C 0.6780(5) 0.6746(4) 0.0954(6)
C14 C 0.6549(5) 0.6143(4) 0.0648(6)
C15 C 0.7103(4) 0.5637(4) 0.0620(5)
C16 C 0.7563(4) 0.3175(4) -0.0884(5)
C17 C 0.6741(4) 0.3172(4) -0.1321(5)
C18 C 0.6308(4) 0.3765(4) -0.1315(5)
C19 C 0.5524(5) 0.3782(5) -0.1690(6)
C20 C 0.5178(5) 0.3218(4) -0.2038(5)
C21 C 0.5613(5) 0.2632(5) -0.2032(6)
C22 C 0.6390(5) 0.2609(4) -0.1692(5)
C23 C 0.8147(4) 0.2704(4) -0.1174(5)
C24 C 0.8925(4) 0.2674(4) -0.0765(5)
C25 C 0.9487(4) 0.2119(4) -0.1024(4)
C26 C 0.9249(5) 0.1594(4) -0.1573(5)
C27 C 0.9786(5) 0.1089(4) -0.1760(6)
C28 C 1.0569(5) 0.1100(5) -0.1427(6)
C29 C 1.0807(5) 0.1613(5) -0.0874(6)
C30 C 1.0269(4) 0.2127(4) -0.0673(5)
H1 H 1.10150 0.38330 0.09910
H2 H 1.23520 0.39110 0.15180
H3 H 1.28150 0.48780 0.21920
H4 H 1.19640 0.57930 0.22820
H5 H 1.06390 0.57400 0.17480
H6 H 0.94490 0.56130 0.13700
H7 H 0.86820 0.64290 0.13770
H8 H 0.77250 0.72850 0.14490
H9 H 0.63940 0.70930 0.09770
H10 H 0.60060 0.60710 0.04540
H11 H 0.69430 0.52140 0.04100
H12 H 0.65440 0.41500 -0.10630
H13 H 0.52290 0.41850 -0.17060
H14 H 0.46440 0.32300 -0.22790
H15 H 0.53700 0.22420 -0.22610
H16 H 0.66930 0.22110 -0.17120
H17 H 0.80160 0.24060 -0.16420
H18 H 0.87180 0.15910 -0.18210
H19 H 0.96150 0.07280 -0.21180
H20 H 1.09400 0.07580 -0.15710
H21 H 1.13400 0.16190 -0.06320
H22 H 1.04310 0.24830 -0.02990
#END