####################################################################### 
# 
# This file contains crystal structure data downloaded from the 
# Cambridge Structural Database (CSD) hosted by the Cambridge 
# Crystallographic Data Centre (CCDC).
# 
# Full information about CCDC data access policies and citation 
# guidelines are available at http://www.ccdc.cam.ac.uk/access/V1 
# 
# Audit and citation data items may have been added by the CCDC. 
# Please retain this information to preserve the provenance of 
# this file and to allow appropriate attribution of the data. 
# 
#######################################################################

data_KIKBUB
#This CIF has been generated from an entry in the Cambridge Structural Database
_database_code_depnum_ccdc_archive 'CCDC 1196789'
_database_code_CSD               KIKBUB
loop_
_citation_id
_citation_doi
_citation_year
1 10.1016/S0277-5387(00)84036-X 1990
_audit_creation_method           'Created from the CSD'
_audit_update_record             
;
2025-01-29 downloaded from the CCDC.
;
_database_code_NBS               601748
_chemical_formula_moiety         'C8 N4 Ni1 S4 2-,2(Rb1 1+),H2 O1'
_chemical_name_systematic        
"Di-rubidium(i) bis(1,2-dicyanoethylene-1,2-dithiolato-S,S')-nickel(ii) monohydrate"
_chemical_absolute_configuration unk
_diffrn_ambient_temperature      295
_exptl_crystal_density_diffrn    2.289
#These two values have been output from a single CSD field.
_refine_ls_R_factor_gt           0.077
_refine_ls_wR_factor_gt          0.077
_diffrn_radiation_probe          x-ray
_symmetry_cell_setting           orthorhombic
_symmetry_space_group_name_H-M   'P b c n'
_symmetry_Int_Tables_number      60
_space_group_name_Hall           '-P 2n 2ab'
loop_
_symmetry_equiv_pos_site_id
_symmetry_equiv_pos_as_xyz
1 x,y,z
2 1/2-x,1/2+y,z
3 x,-y,1/2+z
4 1/2-x,1/2-y,1/2+z
5 -x,-y,-z
6 1/2+x,1/2-y,-z
7 -x,y,1/2-z
8 1/2+x,1/2+y,1/2-z
_cell_length_a                   13.513(2)
_cell_length_b                   6.810(1)
_cell_length_c                   16.651(2)
_cell_angle_alpha                90
_cell_angle_beta                 90
_cell_angle_gamma                90
_cell_volume                     1532.28
_exptl_crystal_colour            red
_cell_formula_units_Z            4
loop_
_atom_site_label
_atom_site_type_symbol
_atom_site_fract_x
_atom_site_fract_y
_atom_site_fract_z
Ni1 Ni 0.00000 0.00000 0.00000
S1 S 0.15781(17) 0.02133(39) 0.02320(16)
S2 S 0.01983(19) 0.06467(44) -0.12703(15)
C1 C 0.20723(66) 0.0617(15) -0.07109(61)
C2 C 0.14815(74) 0.0824(15) -0.13811(58)
C3 C 0.31155(64) 0.0621(14) -0.07937(61)
C4 C 0.18711(74) 0.1355(15) -0.21310(64)
N1 N 0.39651(68) 0.0638(14) -0.07980(65)
N2 N 0.21845(70) 0.1768(16) -0.27445(58)
S1D S -0.15781(17) -0.02133(39) -0.02320(16)
S2D S -0.01983(19) -0.06467(44) 0.12703(15)
C1D C -0.20723(66) -0.0617(15) 0.07109(61)
C2D C -0.14815(74) -0.0824(15) 0.13811(58)
C3D C -0.31155(64) -0.0621(14) 0.07937(61)
C4D C -0.18711(74) -0.1355(15) 0.21310(64)
N1D N -0.39651(68) -0.0638(14) 0.07980(65)
N2D N -0.21845(70) -0.1768(16) 0.27445(58)
O1 O 0.00000 0.3290(21) 0.25000
Rb1 Rb 0.11479(7) 0.50005(18) 0.11853(7)

#END
