
###########################################################################
#
#                 Cambridge Crystallographic Data Centre
#                                CCDC 
# 
###########################################################################
#
#  This CIF contains data generated directly from one or more entries in
#  the Cambridge Structural Database and will include bibliographic, 
#  chemical, crystal, experimental, refinement, and atomic coordinate data,
#  as available.
#     
#  Copyright  2014  The Cambridge Crystallographic Data Centre
# 
#  This CIF is provided on the understanding that it is used for bona fide 
#  research purposes only.  It may contain copyright material of the CCDC
#  or of third parties, and may not be copied or further disseminated in 
#  any form, whether machine-readable or not, except for the purpose of 
#  generating routine backup copies on your local computer system.
# 
#  For further information about the CCDC, data deposition and data 
#  retrieval see <www.ccdc.cam.ac.uk>. Bona fide researchers may freely 
#  download  Mercury and enCIFer from this site to visualise CIF-encoded 
#  structures and to carry out CIF format checking respectively.
#
###########################################################################

data_CSD_CIF_ACACVO04
_audit_creation_date 2005-03-21
_audit_creation_method CSD-ConQuest-V1
_database_code_CSD ACACVO04
_database_code_depnum_ccdc_archive 'CCDC 230339'
_chemical_formula_sum 'C10 H14 O5 V1'
_chemical_formula_moiety
;
C10 H14 O5 V1
;
_journal_coden_Cambridge 29
_journal_volume 630
_journal_year 2004
_journal_page_first 2311
_journal_name_full 'Z.Anorg.Allg.Chem. '
loop_
_publ_author_name
"M.A.K.Ahmed"
"H.Fjellvag"
"A.Kjekshus"
"B.Klewe"
_chemical_name_systematic
;
bis(Acetylacetonato)-oxo-vanadium(iv)
;
_cell_volume    575.881
_exptl_crystal_colour 'green-blue'
_exptl_crystal_density_diffrn 1.529
_exptl_crystal_description 'Plate'
_exptl_crystal_preparation 'sublimation'
_diffrn_ambient_temperature 105

#These two values have been output from a single CSD field.
_refine_ls_R_factor_gt 0.0227
_refine_ls_wR_factor_gt 0.0227
_symmetry_cell_setting triclinic
_symmetry_space_group_name_H-M 'P -1'
_symmetry_Int_Tables_number 2
loop_
_symmetry_equiv_pos_site_id
_symmetry_equiv_pos_as_xyz
1 x,y,z
2 -x,-y,-z
_cell_length_a 7.3457(11)
_cell_length_b 8.1491(12)
_cell_length_c 11.2073(17)
_cell_angle_alpha 72.86(1)
_cell_angle_beta 72.20(1)
_cell_angle_gamma 66.94(1)
_cell_formula_units_Z 2
loop_
_atom_type_symbol
_atom_type_radius_bond
C 0.68
H 0.23
O 0.68
V 1.31
loop_
_atom_site_label
_atom_site_type_symbol
_atom_site_fract_x
_atom_site_fract_y
_atom_site_fract_z
V1 V 0.35888(3) 0.20793(3) 0.777579(19)
O1 O 0.15975(15) 0.31083(14) 0.71989(9)
O2 O 0.56400(14) 0.08223(12) 0.64334(9)
O3 O 0.50850(14) 0.38162(12) 0.73065(9)
O4 O 0.28067(14) 0.27034(12) 0.94726(9)
O5 O 0.35072(14) -0.03857(12) 0.86574(9)
C1 C 0.7730(2) 0.0411(2) 0.44008(14)
H1 H 0.86070 -0.08020 0.47310
H2 H 0.85380 0.10330 0.36830
H3 H 0.66660 0.02930 0.41080
C2 C 0.67770(19) 0.14947(18) 0.54418(12)
C3 C 0.7158(2) 0.30900(18) 0.53163(13)
H4 H 0.79890 0.34990 0.45420
C4 C 0.63775(19) 0.41256(17) 0.62735(12)
C5 C 0.7117(2) 0.56592(18) 0.61405(13)
H5 H 0.60410 0.65930 0.65820
H6 H 0.74870 0.61900 0.52320
H7 H 0.83050 0.51960 0.65200
C6 C 0.1357(2) 0.28497(19) 1.16393(13)
H8 H 0.23130 0.34530 1.15780
H9 H 0.12590 0.19880 1.24590
H10 H 0.00200 0.37640 1.15840
C7 C 0.20919(19) 0.18437(17) 1.05630(12)
C8 C 0.1995(2) 0.00998(18) 1.07790(12)
H11 H 0.14000 -0.04100 1.16140
C9 C 0.27317(18) -0.09395(17) 0.98265(12)
C10 C 0.2720(2) -0.28599(18) 1.01788(13)
H12 H 0.27530 -0.32340 0.94160
H13 H 0.14870 -0.29330 1.08220
H14 H 0.39120 -0.36680 1.05290
#END

